(set-info :Origin "This instance was generated by: BanditFuzz-- an RL fuzzer for SMT solvers" )
(set-info :Author "Joe Scott, Fed Mora, Vijay Ganesh" )
(set-info :Contact "Joe Scott, joseph.scott@uwaterloo.ca")
(set-logic QF_BV)
(declare-const bool_0 Bool)
(declare-const bool_1 Bool)
(declare-const bool_2 Bool)
(declare-const bool_3 Bool)
(declare-const bool_4 Bool)
(declare-const bv_0 (_ BitVec 32))
(declare-const bv_1 (_ BitVec 32))
(declare-const bv_2 (_ BitVec 32))
(declare-const bv_3 (_ BitVec 32))
(declare-const bv_4 (_ BitVec 32))
(assert (and (bvslt (bvsub bv_0 #xc3bd97ec ) (bvnand bv_4 #x23eb823d )) (bvugt (bvxnor #x81d03f75  #x5fcc60ca ) (bvnand #xc2491408  #xfdfe1d91 ))))
(assert (xor (bvsle (bvxnor #xb76a0adc  bv_2) (bvsrem bv_3 bv_2)) (bvugt (bvand #x300de140  bv_2) (bvand #x595f6389  #x2017cfbd ))))
(assert (bvsge (bvnor (bvor #x00ccfcbf  bv_2) (bvsdiv #x6529a2e3  bv_2)) (bvor (bvmul bv_2 bv_4) (bvshl #x97d866be  #x5443f7d6 ))))
(assert (bvsgt (bvand (bvsmod bv_4 #xd383eee2 ) (bvshl bv_0 #xfd857b8e )) (bvnor (bvsdiv bv_3 bv_0) (bvsdiv #x266626a1  bv_1))))
(assert (or (bvsle (bvurem #x8d4dad76  #xe3d5f2e0 ) (bvand #xd5023411  #xabb12614 )) (bvuge (bvsmod bv_3 #x6a480c65 ) (bvor #x9cce0ce8  bv_0))))
(check-sat)
(exit)
